; PUSH cw_5 PUSH cw_3 PUSH cw_4 EXP SWAP1 => PUSH cw_3 PUSH cw_4 EXP PUSH cw_5
(set-option :produce-proofs true)
; 
(set-info :status unknown)
(declare-fun storage_t ((_ BitVec 256) (_ BitVec 256) (_ BitVec 256) (_ BitVec 256) Int (_ BitVec 256)) (_ BitVec 256))
(declare-fun w_4 () (_ BitVec 256))
(declare-fun w_3 () (_ BitVec 256))
(declare-fun w_5 () (_ BitVec 256))
(declare-fun storage_s ((_ BitVec 256) (_ BitVec 256) (_ BitVec 256) (_ BitVec 256) Int (_ BitVec 256)) (_ BitVec 256))
(declare-fun exc_halt_t (Int) Bool)
(declare-fun exc_halt_s (Int) Bool)
(declare-fun stack_t ((_ BitVec 256) (_ BitVec 256) (_ BitVec 256) (_ BitVec 256) Int (_ BitVec 6)) (_ BitVec 256))
(declare-fun stack_s ((_ BitVec 256) (_ BitVec 256) (_ BitVec 256) (_ BitVec 256) Int (_ BitVec 6)) (_ BitVec 256))
(declare-fun sc_t (Int) (_ BitVec 6))
(declare-fun sc_s (Int) (_ BitVec 6))
(declare-fun used_gas_t ((_ BitVec 256) (_ BitVec 256) (_ BitVec 256) (_ BitVec 256) Int) Int)
(declare-fun used_gas_s ((_ BitVec 256) (_ BitVec 256) (_ BitVec 256) (_ BitVec 256) Int) Int)
(declare-fun f_EXP ((_ BitVec 256) (_ BitVec 256) (_ BitVec 256) (_ BitVec 256) (_ BitVec 256) (_ BitVec 256)) (_ BitVec 256))
(assert
 (exists ((x_EXP_0 (_ BitVec 256)) )(let (($x8963 (forall ((w (_ BitVec 256)) )(let ((?x577 (storage_t w_5 w_3 w_4 x_EXP_0 4 w)))
 (let ((?x3878 (storage_s w_5 w_3 w_4 x_EXP_0 5 w)))
 (= ?x3878 ?x577))))
 ))
 (let (($x3723 (exc_halt_t 4)))
 (let (($x3979 (exc_halt_s 5)))
 (let (($x7567 (= $x3979 $x3723)))
 (let (($x604 (forall ((n (_ BitVec 6)) )(let ((?x6238 (stack_t w_5 w_3 w_4 x_EXP_0 4 n)))
 (let ((?x5012 (stack_s w_5 w_3 w_4 x_EXP_0 5 n)))
 (let (($x4756 (= ?x5012 ?x6238)))
 (or (bvsle (sc_t 4) n) $x4756)))))
 ))
 (let ((?x3757 (sc_t 4)))
 (let ((?x805 (sc_s 5)))
 (let (($x9143 (= ?x805 ?x3757)))
 (let ((?x3234 (used_gas_t w_5 w_3 w_4 x_EXP_0 0)))
 (let ((?x3418 (used_gas_s w_5 w_3 w_4 x_EXP_0 0)))
 (let (($x9902 (= ?x3418 ?x3234)))
 (let (($x399 (forall ((w (_ BitVec 256)) )(let ((?x9801 (storage_t w_5 w_3 w_4 x_EXP_0 0 w)))
 (let ((?x5125 (storage_s w_5 w_3 w_4 x_EXP_0 0 w)))
 (= ?x5125 ?x9801))))
 ))
 (let (($x56 (exc_halt_t 0)))
 (let (($x57 (exc_halt_s 0)))
 (let (($x58 (= $x57 $x56)))
 (let (($x6500 (forall ((n (_ BitVec 6)) )(let ((?x5346 (stack_t w_5 w_3 w_4 x_EXP_0 0 n)))
 (let ((?x9941 (stack_s w_5 w_3 w_4 x_EXP_0 0 n)))
 (let (($x6356 (= ?x9941 ?x5346)))
 (let ((?x63 (sc_t 0)))
 (let (($x515 (bvsle ?x63 n)))
 (or $x515 $x6356)))))))
 ))
 (let ((?x63 (sc_t 0)))
 (let ((?x72 (sc_s 0)))
 (let (($x73 (= ?x72 ?x63)))
 (let (($x1941 (exc_halt_t 3)))
 (let (($x10908 (or $x1941 (not (= ((_ extract 6 6) (bvadd (_ bv1 7) (concat (_ bv0 1) (sc_t 3)))) (_ bv0 1))))))
 (let (($x6089 (forall ((w (_ BitVec 256)) )(let ((?x3659 (storage_t w_5 w_3 w_4 x_EXP_0 3 w)))
 (let ((?x577 (storage_t w_5 w_3 w_4 x_EXP_0 4 w)))
 (= ?x577 ?x3659))))
 ))
 (let (($x7071 (forall ((n (_ BitVec 6)) )(let ((?x2673 (stack_t w_5 w_3 w_4 x_EXP_0 3 n)))
 (let ((?x6238 (stack_t w_5 w_3 w_4 x_EXP_0 4 n)))
 (or (bvsle (sc_t 3) n) (= ?x6238 ?x2673)))))
 ))
 (let (($x1762 (= (used_gas_t w_5 w_3 w_4 x_EXP_0 4) (+ 3 (used_gas_t w_5 w_3 w_4 x_EXP_0 3)))))
 (let (($x10519 (= $x1941 (or (exc_halt_t 2) (not (bvsle (_ bv0 6) (bvadd (_ bv62 6) (sc_t 2))))))))
 (let (($x6666 (forall ((w (_ BitVec 256)) )(let ((?x5769 (storage_t w_5 w_3 w_4 x_EXP_0 2 w)))
 (let ((?x3659 (storage_t w_5 w_3 w_4 x_EXP_0 3 w)))
 (= ?x3659 ?x5769))))
 ))
 (let (($x9466 (forall ((n (_ BitVec 6)) )(let ((?x2321 (stack_t w_5 w_3 w_4 x_EXP_0 2 n)))
 (let ((?x2673 (stack_t w_5 w_3 w_4 x_EXP_0 3 n)))
 (let ((?x4056 (sc_t 2)))
 (let ((?x9399 (bvadd (_ bv62 6) ?x4056)))
 (let (($x1247 (bvsle ?x9399 n)))
 (or $x1247 (= ?x2673 ?x2321))))))))
 ))
 (let ((?x2093 (used_gas_t w_5 w_3 w_4 x_EXP_0 3)))
 (let ((?x7384 (f_EXP w_5 w_3 w_4 x_EXP_0 (stack_t w_5 w_3 w_4 x_EXP_0 2 (bvadd (_ bv63 6) (sc_t 2))) (stack_t w_5 w_3 w_4 x_EXP_0 2 (bvadd (_ bv62 6) (sc_t 2))))))
 (let (($x11176 (= (stack_t w_5 w_3 w_4 x_EXP_0 3 (bvadd (_ bv63 6) (sc_t 3))) ?x7384)))
 (let (($x1920 (exc_halt_t 1)))
 (let (($x2128 (or $x1920 (not (= ((_ extract 6 6) (bvadd (_ bv1 7) (concat (_ bv0 1) (sc_t 1)))) (_ bv0 1))))))
 (let (($x903 (exc_halt_t 2)))
 (let (($x10198 (forall ((w (_ BitVec 256)) )(let ((?x9260 (storage_t w_5 w_3 w_4 x_EXP_0 1 w)))
 (let ((?x5769 (storage_t w_5 w_3 w_4 x_EXP_0 2 w)))
 (= ?x5769 ?x9260))))
 ))
 (let (($x10554 (forall ((n (_ BitVec 6)) )(let ((?x274 (stack_t w_5 w_3 w_4 x_EXP_0 1 n)))
 (let ((?x2321 (stack_t w_5 w_3 w_4 x_EXP_0 2 n)))
 (or (= ?x2321 ?x274) (bvsle (sc_t 1) n)))))
 ))
 (let ((?x5765 (used_gas_t w_5 w_3 w_4 x_EXP_0 2)))
 (let (($x10641 (= $x1920 (or $x56 (not (= ((_ extract 6 6) (bvadd (_ bv1 7) (concat (_ bv0 1) ?x63))) (_ bv0 1)))))))
 (let (($x8327 (forall ((w (_ BitVec 256)) )(let ((?x9801 (storage_t w_5 w_3 w_4 x_EXP_0 0 w)))
 (let ((?x9260 (storage_t w_5 w_3 w_4 x_EXP_0 1 w)))
 (= ?x9260 ?x9801))))
 ))
 (let (($x8941 (forall ((n (_ BitVec 6)) )(let ((?x5346 (stack_t w_5 w_3 w_4 x_EXP_0 0 n)))
 (let ((?x274 (stack_t w_5 w_3 w_4 x_EXP_0 1 n)))
 (let ((?x63 (sc_t 0)))
 (let (($x515 (bvsle ?x63 n)))
 (or $x515 (= ?x274 ?x5346)))))))
 ))
 (let (($x810 (= $x3979 (or (exc_halt_s 4) (not (bvsle (_ bv0 6) (bvadd (_ bv62 6) (sc_s 4))))))))
 (let (($x6518 (forall ((w (_ BitVec 256)) )(let ((?x421 (storage_s w_5 w_3 w_4 x_EXP_0 4 w)))
 (let ((?x3878 (storage_s w_5 w_3 w_4 x_EXP_0 5 w)))
 (= ?x3878 ?x421))))
 ))
 (let (($x737 (forall ((n (_ BitVec 6)) )(let ((?x7604 (stack_s w_5 w_3 w_4 x_EXP_0 4 n)))
 (let ((?x5012 (stack_s w_5 w_3 w_4 x_EXP_0 5 n)))
 (let ((?x4305 (sc_s 4)))
 (let ((?x9342 (bvadd (_ bv62 6) ?x4305)))
 (let (($x6118 (bvsle ?x9342 n)))
 (or $x6118 (= ?x5012 ?x7604))))))))
 ))
 (let ((?x4305 (sc_s 4)))
 (let (($x3983 (= ?x805 ?x4305)))
 (let (($x5983 (= (used_gas_s w_5 w_3 w_4 x_EXP_0 5) (+ 3 (used_gas_s w_5 w_3 w_4 x_EXP_0 4)))))
 (let ((?x4463 (bvadd (_ bv63 6) ?x4305)))
 (let ((?x8709 (stack_s w_5 w_3 w_4 x_EXP_0 4 ?x4463)))
 (let (($x1492 (= (stack_s w_5 w_3 w_4 x_EXP_0 5 (bvadd (_ bv63 6) ?x805)) (stack_s w_5 w_3 w_4 x_EXP_0 4 (bvadd (_ bv62 6) ?x4305)))))
 (let (($x64 (exc_halt_s 4)))
 (let (($x11781 (= $x64 (or (exc_halt_s 3) (not (bvsle (_ bv0 6) (bvadd (_ bv62 6) (sc_s 3))))))))
 (let (($x4374 (forall ((w (_ BitVec 256)) )(let ((?x2429 (storage_s w_5 w_3 w_4 x_EXP_0 3 w)))
 (let ((?x421 (storage_s w_5 w_3 w_4 x_EXP_0 4 w)))
 (= ?x421 ?x2429))))
 ))
 (let (($x9128 (forall ((n (_ BitVec 6)) )(let ((?x6062 (stack_s w_5 w_3 w_4 x_EXP_0 3 n)))
 (let ((?x7604 (stack_s w_5 w_3 w_4 x_EXP_0 4 n)))
 (or (= ?x7604 ?x6062) (bvsle (bvadd (_ bv62 6) (sc_s 3)) n)))))
 ))
 (let ((?x275 (sc_s 3)))
 (let ((?x7729 (bvadd (_ bv63 6) ?x275)))
 (let (($x8309 (= ?x4305 ?x7729)))
 (let ((?x1801 (used_gas_s w_5 w_3 w_4 x_EXP_0 4)))
 (let ((?x2466 (f_EXP w_5 w_3 w_4 x_EXP_0 (stack_s w_5 w_3 w_4 x_EXP_0 3 ?x7729) (stack_s w_5 w_3 w_4 x_EXP_0 3 (bvadd (_ bv62 6) ?x275)))))
 (let (($x247 (exc_halt_s 2)))
 (let (($x480 (or $x247 (not (= ((_ extract 6 6) (bvadd (_ bv1 7) (concat (_ bv0 1) (sc_s 2)))) (_ bv0 1))))))
 (let (($x292 (exc_halt_s 3)))
 (let (($x6646 (forall ((w (_ BitVec 256)) )(let ((?x11841 (storage_s w_5 w_3 w_4 x_EXP_0 2 w)))
 (let ((?x2429 (storage_s w_5 w_3 w_4 x_EXP_0 3 w)))
 (= ?x2429 ?x11841))))
 ))
 (let (($x7406 (forall ((n (_ BitVec 6)) )(let ((?x8107 (stack_s w_5 w_3 w_4 x_EXP_0 2 n)))
 (let ((?x6062 (stack_s w_5 w_3 w_4 x_EXP_0 3 n)))
 (or (= ?x6062 ?x8107) (bvsle (sc_s 2) n)))))
 ))
 (let ((?x9248 (used_gas_s w_5 w_3 w_4 x_EXP_0 3)))
 (let (($x189 (exc_halt_s 1)))
 (let (($x731 (or $x189 (not (= ((_ extract 6 6) (bvadd (_ bv1 7) (concat (_ bv0 1) (sc_s 1)))) (_ bv0 1))))))
 (let (($x11625 (forall ((w (_ BitVec 256)) )(let ((?x10533 (storage_s w_5 w_3 w_4 x_EXP_0 1 w)))
 (let ((?x11841 (storage_s w_5 w_3 w_4 x_EXP_0 2 w)))
 (= ?x11841 ?x10533))))
 ))
 (let (($x10425 (forall ((n (_ BitVec 6)) )(let ((?x8219 (stack_s w_5 w_3 w_4 x_EXP_0 1 n)))
 (let ((?x8107 (stack_s w_5 w_3 w_4 x_EXP_0 2 n)))
 (or (= ?x8107 ?x8219) (bvsle (sc_s 1) n)))))
 ))
 (let ((?x3425 (used_gas_s w_5 w_3 w_4 x_EXP_0 2)))
 (let (($x2279 (= $x189 (or $x57 (not (= ((_ extract 6 6) (bvadd (_ bv1 7) (concat (_ bv0 1) ?x72))) (_ bv0 1)))))))
 (let (($x8045 (forall ((w (_ BitVec 256)) )(let ((?x5125 (storage_s w_5 w_3 w_4 x_EXP_0 0 w)))
 (let ((?x10533 (storage_s w_5 w_3 w_4 x_EXP_0 1 w)))
 (= ?x10533 ?x5125))))
 ))
 (let (($x8164 (forall ((n (_ BitVec 6)) )(let ((?x9941 (stack_s w_5 w_3 w_4 x_EXP_0 0 n)))
 (let ((?x8219 (stack_s w_5 w_3 w_4 x_EXP_0 1 n)))
 (or (bvsle (sc_s 0) n) (= ?x8219 ?x9941)))))
 ))
 (let (($x7902 (forall ((w0 (_ BitVec 256)) (w1 (_ BitVec 256)) )(let (($x10437 (= (stack_s w_5 w_3 w_4 x_EXP_0 3 (bvadd (_ bv62 6) (sc_s 3))) w1)))
 (let (($x7088 (= (stack_s w_5 w_3 w_4 x_EXP_0 3 (bvadd (_ bv63 6) (sc_s 3))) w0)))
 (let ((?x10180 (f_EXP w_5 w_3 w_4 x_EXP_0 w0 w1)))
 (= ?x10180 (ite (and $x7088 $x10437) x_EXP_0 (_ bv0 256)))))))
 ))
 (let (($x5503 (forall ((w (_ BitVec 256)) )(let ((?x5125 (storage_s w_5 w_3 w_4 x_EXP_0 0 w)))
 (= ?x5125 (_ bv0 256))))
 ))
 (let (($x3487 (= ?x3418 0)))
 (let (($x2460 (not $x57)))
 (let (($x136 (= ?x72 (_ bv0 6))))
 (and $x136 $x2460 $x3487 $x5503 $x7902 (= (stack_s w_5 w_3 w_4 x_EXP_0 1 ?x72) w_5) (= (used_gas_s w_5 w_3 w_4 x_EXP_0 1) (+ 3 ?x3418)) (= (sc_s 1) (bvadd (_ bv1 6) ?x72)) $x8164 $x8045 $x2279 (= (stack_s w_5 w_3 w_4 x_EXP_0 2 (sc_s 1)) w_3) (= ?x3425 (+ 3 (used_gas_s w_5 w_3 w_4 x_EXP_0 1))) (= (sc_s 2) (bvadd (_ bv1 6) (sc_s 1))) $x10425 $x11625 (= $x247 $x731) (= (stack_s w_5 w_3 w_4 x_EXP_0 3 (sc_s 2)) w_4) (= ?x9248 (+ 3 ?x3425)) (= ?x275 (bvadd (_ bv1 6) (sc_s 2))) $x7406 $x6646 (= $x292 $x480) (= ?x8709 ?x2466) (= ?x1801 (+ 10 ?x9248)) $x8309 $x9128 $x4374 $x11781 $x1492 (= (stack_s w_5 w_3 w_4 x_EXP_0 5 (bvadd (_ bv62 6) ?x805)) ?x8709) $x5983 $x3983 $x737 $x6518 $x810 (= (stack_t w_5 w_3 w_4 x_EXP_0 1 ?x63) w_3) (= (used_gas_t w_5 w_3 w_4 x_EXP_0 1) (+ 3 ?x3234)) (= (sc_t 1) (bvadd (_ bv1 6) ?x63)) $x8941 $x8327 $x10641 (= (stack_t w_5 w_3 w_4 x_EXP_0 2 (sc_t 1)) w_4) (= ?x5765 (+ 3 (used_gas_t w_5 w_3 w_4 x_EXP_0 1))) (= (sc_t 2) (bvadd (_ bv1 6) (sc_t 1))) $x10554 $x10198 (= $x903 $x2128) $x11176 (= ?x2093 (+ 10 ?x5765)) (= (sc_t 3) (bvadd (_ bv63 6) (sc_t 2))) $x9466 $x6666 $x10519 (= (stack_t w_5 w_3 w_4 x_EXP_0 4 (sc_t 3)) w_5) $x1762 (= ?x3757 (bvadd (_ bv1 6) (sc_t 3))) $x7071 $x6089 (= $x3723 $x10908) $x73 $x6500 $x58 $x399 $x9902 (not (and $x9143 $x604 $x7567 $x8963))))))))))))))))))))))))))))))))))))))))))))))))))))))))))))))))))))))))))))))))
 )
(check-sat)
(get-proof)
